(set-info :source |printed by MathSAT|)
(declare-fun call_Sofar.Sofar () Bool)
(declare-fun param_m () Bool)
(declare-fun call_voiture.ite3 () Int)
(declare-fun param_s () Bool)
(declare-fun stop () Bool)
(declare-fun call_voiture.meter () Bool)
(declare-fun call_voiture.flby3 () Bool)
(declare-fun call_voiture.flby6 () Int)
(declare-fun second () Bool)
(declare-fun call_voiture.move () Bool)
(declare-fun speed () Int)
(declare-fun call_voiture.time () Int)
(declare-fun call_voiture.flby () Bool)
(declare-fun call_Sofar.flby () Bool)
(declare-fun call_voiture.stop () Bool)
(declare-fun meter () Bool)
(declare-fun call_voiture.flby5 () Int)
(declare-fun move () Bool)
(declare-fun call_voiture.second () Bool)
(declare-fun call_voiture.ite2 () Int)
(declare-fun call_voiture.speed () Int)
(declare-fun call_voiture.toofast () Bool)
(declare-fun toofast () Bool)
(declare-fun _OK_ () Bool)
(declare-fun call_voiture.flby4 () Int)
(declare-fun call_excludes2.excludes () Bool)
(declare-fun time () Int)
(declare-fun env () Bool)
(declare-fun call_voiture.bump () Bool)
(declare-fun bump () Bool)
(declare-fun dist () Int)
(declare-fun call_voiture.dist () Int)
(declare-fun call_voiture.flby2 () Bool)
(define-fun .def_406 () Bool (= call_Sofar.flby call_Sofar.Sofar))
(define-fun .def_402 () Bool (and param_s param_m))
(define-fun .def_403 () Bool (not .def_402))
(define-fun .def_404 () Bool (= call_excludes2.excludes .def_403))
(define-fun .def_398 () Bool (= call_voiture.flby call_voiture.meter))
(define-fun .def_396 () Bool (= call_voiture.flby2 call_voiture.second))
(define-fun .def_393 () Bool (= call_voiture.flby3 call_voiture.move))
(define-fun .def_390 () Bool (= call_voiture.ite3 0))
(define-fun .def_386 () Bool (not call_voiture.move))
(define-fun .def_387 () Bool (or call_voiture.second .def_386))
(define-fun .def_389 () Bool (not .def_387))
(define-fun .def_391 () Bool (or .def_389 .def_390))
(define-fun .def_385 () Bool (= call_voiture.ite2 call_voiture.ite3))
(define-fun .def_388 () Bool (or .def_385 .def_387))
(define-fun .def_392 () Bool (and .def_388 .def_391))
(define-fun .def_394 () Bool (and .def_392 .def_393))
(define-fun .def_381 () Bool (= call_voiture.flby6 call_voiture.time))
(define-fun .def_379 () Bool (= call_voiture.flby5 call_voiture.speed))
(define-fun .def_377 () Bool (= call_voiture.flby4 call_voiture.dist))
(define-fun .def_374 () Bool (= call_voiture.dist 10))
(define-fun .def_375 () Bool (= call_voiture.bump .def_374))
(define-fun .def_371 () Bool (<= 4 call_voiture.time))
(define-fun .def_372 () Bool (= call_voiture.stop .def_371))
(define-fun .def_368 () Bool (<= 3 call_voiture.speed))
(define-fun .def_369 () Bool (= call_voiture.toofast .def_368))
(define-fun .def_366 () Bool (= env call_Sofar.Sofar))
(define-fun .def_363 () Bool (= meter call_voiture.meter))
(define-fun .def_359 () Bool (= second call_voiture.second))
(define-fun .def_355 () Bool (= move call_voiture.move))
(define-fun .def_351 () Bool (= time call_voiture.time))
(define-fun .def_347 () Bool (= speed call_voiture.speed))
(define-fun .def_344 () Bool (= dist call_voiture.dist))
(define-fun .def_341 () Bool (= bump call_voiture.bump))
(define-fun .def_337 () Bool (= stop call_voiture.stop))
(define-fun .def_333 () Bool (= toofast call_voiture.toofast))
(define-fun .def_327 () Bool (<= 0 speed))
(define-fun .def_324 () Bool (<= 4 speed))
(define-fun .def_325 () Bool (not .def_324))
(define-fun .def_320 () Bool (<= 11 dist))
(define-fun .def_321 () Bool (not .def_320))
(define-fun .def_319 () Bool (<= 0 dist))
(define-fun .def_322 () Bool (and .def_319 .def_321))
(define-fun .def_326 () Bool (and .def_322 .def_325))
(define-fun .def_328 () Bool (and .def_326 .def_327))
(define-fun .def_318 () Bool (not env))
(define-fun .def_329 () Bool (or .def_318 .def_328))
(define-fun .def_330 () Bool (= _OK_ .def_329))
(define-fun .def_334 () Bool (and .def_330 .def_333))
(define-fun .def_338 () Bool (and .def_334 .def_337))
(define-fun .def_342 () Bool (and .def_338 .def_341))
(define-fun .def_345 () Bool (and .def_342 .def_344))
(define-fun .def_348 () Bool (and .def_345 .def_347))
(define-fun .def_352 () Bool (and .def_348 .def_351))
(define-fun .def_356 () Bool (and .def_352 .def_355))
(define-fun .def_360 () Bool (and .def_356 .def_359))
(define-fun .def_364 () Bool (and .def_360 .def_363))
(define-fun .def_367 () Bool (and .def_364 .def_366))
(define-fun .def_370 () Bool (and .def_367 .def_369))
(define-fun .def_373 () Bool (and .def_370 .def_372))
(define-fun .def_376 () Bool (and .def_373 .def_375))
(define-fun .def_378 () Bool (and .def_376 .def_377))
(define-fun .def_380 () Bool (and .def_378 .def_379))
(define-fun .def_382 () Bool (and .def_380 .def_381))
(define-fun .def_395 () Bool (and .def_382 .def_394))
(define-fun .def_397 () Bool (and .def_395 .def_396))
(define-fun .def_399 () Bool (and .def_397 .def_398))
(define-fun .def_405 () Bool (and .def_399 .def_404))
(define-fun .def_407 () Bool (and .def_405 .def_406))
(define-fun .def_309 () Bool (<= 32767 dist))
(define-fun .def_310 () Bool (not .def_309))
(define-fun .def_312 () Bool (and .def_310 call_excludes2.excludes))
(define-fun .def_314 () Bool (= .def_312 call_Sofar.flby))
(define-fun .def_306 () Bool (= call_voiture.flby6 0))
(define-fun .def_303 () Bool (= call_voiture.flby5 0))
(define-fun .def_300 () Bool (= call_voiture.flby4 0))
(define-fun .def_295 () Bool (not call_voiture.flby2))
(define-fun .def_293 () Bool (not call_voiture.flby))
(define-fun .def_296 () Bool (and .def_293 .def_295))
(define-fun .def_298 () Bool (and .def_296 call_voiture.flby3))
(define-fun .def_301 () Bool (and .def_298 .def_300))
(define-fun .def_304 () Bool (and .def_301 .def_303))
(define-fun .def_307 () Bool (and .def_304 .def_306))
(define-fun .def_315 () Bool (and .def_307 .def_314))
(define-fun .def_408 () Bool (and .def_315 .def_407))
(assert .def_408)
